words_hard_train/4511.qaiger
aag 117 21 0 1 96
2
4
8
10
20
24
40
48
60
68
80
88
100
108
122
132
134
142
174
190
208
235
6 2 5
12 9 11
14 12 3
16 7 15
18 3 4
22 8 21
26 23 24
28 22 25
30 29 11
32 27 31
34 32 13
36 19 34
38 16 37
42 15 40
44 14 41
46 43 45
50 47 49
52 46 48
54 51 53
56 38 54
58 57 53
62 45 60
64 44 61
66 63 65
70 67 69
72 66 68
74 71 73
76 59 74
78 77 73
82 65 80
84 64 81
86 83 85
90 87 89
92 86 88
94 91 93
96 79 94
98 97 93
102 85 100
104 84 101
106 103 105
110 107 109
112 106 108
114 111 113
116 98 115
118 99 114
120 117 119
124 120 123
126 121 122
128 125 127
130 128 48
136 133 134
138 132 135
140 137 139
144 140 143
146 141 142
148 145 147
150 148 105
152 149 104
154 151 153
156 119 113
158 155 156
160 154 157
162 159 161
164 162 69
166 131 165
168 129 49
170 58 75
172 171 77
176 172 174
178 173 175
180 177 179
182 181 24
184 180 25
186 39 55
188 187 57
192 189 190
194 188 191
196 193 195
198 196 20
200 185 198
202 183 201
204 78 95
206 205 97
210 206 209
212 207 208
214 211 213
216 214 4
218 202 217
220 21 25
222 214 221
224 223 5
226 219 225
228 169 226
230 166 229
232 163 68
234 231 233
i0 2 y2[2]
i1 1 x2[2]
i2 2 y2[0]
i3 2 y2[1]
i4 1 x2[0]
i5 1 x2[1]
i6 2 y2[3]
i7 1 x2[3]
i8 2 y2[4]
i9 1 x2[4]
i10 2 y2[5]
i11 1 x2[5]
i12 2 y2[6]
i13 1 x2[6]
i14 2 y1[6]
i15 1 x2[7]
i16 2 y2[7]
i17 2 y1[7]
i18 2 y1[4]
i19 2 y1[3]
i20 2 y1[5]
o0 bv[0]
c
simplified
  <=
    << 3
      1 x2
    xor
      2 y1
      subtract
        1 x2
        2 y2
