words_hard_train/4511.qaiger.qdimacs
p cnf 117 289
a 2 34 66 10 12 44 54 24 0
e 1 3 4 5 6 7 8 9 11 13 14 15 16 17 18 19 20 21 22 23 25 26 27 28 29 30 31 32 33 35 36 37 38 39 40 41 42 43 45 46 47 48 49 50 51 52 53 55 56 57 58 59 60 61 62 63 64 65 67 68 69 70 71 72 73 74 75 76 77 78 79 80 81 82 83 84 85 86 87 88 89 90 91 92 93 94 95 96 97 98 99 100 101 102 103 104 105 106 107 108 109 110 111 112 113 114 115 116 117 0
-1 2 3 0
1 -3 0
-2 -3 0
4 5 6 0
-4 -6 0
-5 -6 0
-6 1 7 0
6 -7 0
-1 -7 0
3 7 8 0
-3 -8 0
-7 -8 0
1 -2 9 0
-1 -9 0
2 -9 0
-4 10 11 0
4 -11 0
-10 -11 0
11 -12 13 0
-11 -13 0
12 -13 0
-11 12 14 0
11 -14 0
-12 -14 0
14 5 15 0
-14 -15 0
-5 -15 0
13 15 16 0
-13 -16 0
-15 -16 0
-16 6 17 0
16 -17 0
-6 -17 0
9 -17 18 0
-9 -18 0
17 -18 0
-8 18 19 0
8 -19 0
-18 -19 0
7 -20 21 0
-7 -21 0
20 -21 0
-7 20 22 0
7 -22 0
-20 -22 0
21 22 23 0
-21 -23 0
-22 -23 0
23 24 25 0
-23 -25 0
-24 -25 0
-23 -24 26 0
23 -26 0
24 -26 0
25 26 27 0
-25 -27 0
-26 -27 0
-19 -27 28 0
19 -28 0
27 -28 0
28 26 29 0
-28 -29 0
-26 -29 0
22 -30 31 0
-22 -31 0
30 -31 0
-22 30 32 0
22 -32 0
-30 -32 0
31 32 33 0
-31 -33 0
-32 -33 0
33 34 35 0
-33 -35 0
-34 -35 0
-33 -34 36 0
33 -36 0
34 -36 0
35 36 37 0
-35 -37 0
-36 -37 0
29 -37 38 0
-29 -38 0
37 -38 0
38 36 39 0
-38 -39 0
-36 -39 0
32 -40 41 0
-32 -41 0
40 -41 0
-32 40 42 0
32 -42 0
-40 -42 0
41 42 43 0
-41 -43 0
-42 -43 0
43 44 45 0
-43 -45 0
-44 -45 0
-43 -44 46 0
43 -46 0
44 -46 0
45 46 47 0
-45 -47 0
-46 -47 0
39 -47 48 0
-39 -48 0
47 -48 0
48 46 49 0
-48 -49 0
-46 -49 0
42 -50 51 0
-42 -51 0
50 -51 0
-42 50 52 0
42 -52 0
-50 -52 0
51 52 53 0
-51 -53 0
-52 -53 0
53 54 55 0
-53 -55 0
-54 -55 0
-53 -54 56 0
53 -56 0
54 -56 0
55 56 57 0
-55 -57 0
-56 -57 0
-49 57 58 0
49 -58 0
-57 -58 0
49 -57 59 0
-49 -59 0
57 -59 0
58 59 60 0
-58 -60 0
-59 -60 0
-60 61 62 0
60 -62 0
-61 -62 0
60 -61 63 0
-60 -63 0
61 -63 0
62 63 64 0
-62 -64 0
-63 -64 0
-64 -24 65 0
64 -65 0
24 -65 0
66 -67 68 0
-66 -68 0
67 -68 0
-66 67 69 0
66 -69 0
-67 -69 0
68 69 70 0
-68 -70 0
-69 -70 0
-70 71 72 0
70 -72 0
-71 -72 0
70 -71 73 0
-70 -73 0
71 -73 0
72 73 74 0
-72 -74 0
-73 -74 0
-74 52 75 0
74 -75 0
-52 -75 0
74 -52 76 0
-74 -76 0
52 -76 0
75 76 77 0
-75 -77 0
-76 -77 0
59 56 78 0
-59 -78 0
-56 -78 0
77 -78 79 0
-77 -79 0
78 -79 0
-77 78 80 0
77 -80 0
-78 -80 0
79 80 81 0
-79 -81 0
-80 -81 0
-81 34 82 0
81 -82 0
-34 -82 0
65 82 83 0
-65 -83 0
-82 -83 0
64 24 84 0
-64 -84 0
-24 -84 0
-29 37 85 0
29 -85 0
-37 -85 0
85 38 86 0
-85 -86 0
-38 -86 0
-86 -87 88 0
86 -88 0
87 -88 0
86 87 89 0
-86 -89 0
-87 -89 0
88 89 90 0
-88 -90 0
-89 -90 0
90 -12 91 0
-90 -91 0
12 -91 0
-90 12 92 0
90 -92 0
-12 -92 0
19 27 93 0
-19 -93 0
-27 -93 0
93 28 94 0
-93 -94 0
-28 -94 0
94 -95 96 0
-94 -96 0
95 -96 0
-94 95 97 0
94 -97 0
-95 -97 0
96 97 98 0
-96 -98 0
-97 -98 0
-98 -10 99 0
98 -99 0
10 -99 0
92 -99 100 0
-92 -100 0
99 -100 0
91 100 101 0
-91 -101 0
-100 -101 0
-39 47 102 0
39 -102 0
-47 -102 0
102 48 103 0
-102 -103 0
-48 -103 0
-103 104 105 0
103 -105 0
-104 -105 0
103 -104 106 0
-103 -106 0
104 -106 0
105 106 107 0
-105 -107 0
-106 -107 0
-107 -2 108 0
107 -108 0
2 -108 0
-101 108 109 0
101 -109 0
-108 -109 0
10 12 110 0
-10 -110 0
-12 -110 0
-107 110 111 0
107 -111 0
-110 -111 0
111 2 112 0
-111 -112 0
-2 -112 0
109 112 113 0
-109 -113 0
-112 -113 0
84 -113 114 0
-84 -114 0
113 -114 0
-83 114 115 0
83 -115 0
-114 -115 0
81 -34 116 0
-81 -116 0
34 -116 0
115 116 117 0
-115 -117 0
-116 -117 0
-117 0
